c description: There is a graph of 7 vertices with a 4-clique and a 6-coloring
c generator: CNFgen (0.9.0)
c copyright: (C) 2012-2020 Massimo Lauria <massimo.lauria@uniroma1.it>
c url: https://massimolauria.net/cnfgen
c
p cnf 91 620
-22 -23 0
-22 -24 0
-22 -25 0
-22 -26 0
-22 -27 0
-22 -28 0
-23 -24 0
-23 -25 0
-23 -26 0
-23 -27 0
-23 -28 0
-24 -25 0
-24 -26 0
-24 -27 0
-24 -28 0
-25 -26 0
-25 -27 0
-25 -28 0
-26 -27 0
-26 -28 0
-27 -28 0
22 23 24 25 26 27 28 0
-29 -30 0
-29 -31 0
-29 -32 0
-29 -33 0
-29 -34 0
-29 -35 0
-30 -31 0
-30 -32 0
-30 -33 0
-30 -34 0
-30 -35 0
-31 -32 0
-31 -33 0
-31 -34 0
-31 -35 0
-32 -33 0
-32 -34 0
-32 -35 0
-33 -34 0
-33 -35 0
-34 -35 0
29 30 31 32 33 34 35 0
-36 -37 0
-36 -38 0
-36 -39 0
-36 -40 0
-36 -41 0
-36 -42 0
-37 -38 0
-37 -39 0
-37 -40 0
-37 -41 0
-37 -42 0
-38 -39 0
-38 -40 0
-38 -41 0
-38 -42 0
-39 -40 0
-39 -41 0
-39 -42 0
-40 -41 0
-40 -42 0
-41 -42 0
36 37 38 39 40 41 42 0
-43 -44 0
-43 -45 0
-43 -46 0
-43 -47 0
-43 -48 0
-43 -49 0
-44 -45 0
-44 -46 0
-44 -47 0
-44 -48 0
-44 -49 0
-45 -46 0
-45 -47 0
-45 -48 0
-45 -49 0
-46 -47 0
-46 -48 0
-46 -49 0
-47 -48 0
-47 -49 0
-48 -49 0
43 44 45 46 47 48 49 0
-22 -29 0
-22 -36 0
-22 -43 0
-29 -36 0
-29 -43 0
-36 -43 0
-23 -30 0
-23 -37 0
-23 -44 0
-30 -37 0
-30 -44 0
-37 -44 0
-24 -31 0
-24 -38 0
-24 -45 0
-31 -38 0
-31 -45 0
-38 -45 0
-25 -32 0
-25 -39 0
-25 -46 0
-32 -39 0
-32 -46 0
-39 -46 0
-26 -33 0
-26 -40 0
-26 -47 0
-33 -40 0
-33 -47 0
-40 -47 0
-27 -34 0
-27 -41 0
-27 -48 0
-34 -41 0
-34 -48 0
-41 -48 0
-28 -35 0
-28 -42 0
-28 -49 0
-35 -42 0
-35 -49 0
-42 -49 0
1 -22 -30 0
1 -22 -37 0
1 -22 -44 0
1 -29 -23 0
1 -29 -37 0
1 -29 -44 0
1 -36 -23 0
1 -36 -30 0
1 -36 -44 0
1 -43 -23 0
1 -43 -30 0
1 -43 -37 0
2 -22 -31 0
2 -22 -38 0
2 -22 -45 0
2 -29 -24 0
2 -29 -38 0
2 -29 -45 0
2 -36 -24 0
2 -36 -31 0
2 -36 -45 0
2 -43 -24 0
2 -43 -31 0
2 -43 -38 0
3 -22 -32 0
3 -22 -39 0
3 -22 -46 0
3 -29 -25 0
3 -29 -39 0
3 -29 -46 0
3 -36 -25 0
3 -36 -32 0
3 -36 -46 0
3 -43 -25 0
3 -43 -32 0
3 -43 -39 0
4 -22 -33 0
4 -22 -40 0
4 -22 -47 0
4 -29 -26 0
4 -29 -40 0
4 -29 -47 0
4 -36 -26 0
4 -36 -33 0
4 -36 -47 0
4 -43 -26 0
4 -43 -33 0
4 -43 -40 0
5 -22 -34 0
5 -22 -41 0
5 -22 -48 0
5 -29 -27 0
5 -29 -41 0
5 -29 -48 0
5 -36 -27 0
5 -36 -34 0
5 -36 -48 0
5 -43 -27 0
5 -43 -34 0
5 -43 -41 0
6 -22 -35 0
6 -22 -42 0
6 -22 -49 0
6 -29 -28 0
6 -29 -42 0
6 -29 -49 0
6 -36 -28 0
6 -36 -35 0
6 -36 -49 0
6 -43 -28 0
6 -43 -35 0
6 -43 -42 0
7 -23 -31 0
7 -23 -38 0
7 -23 -45 0
7 -30 -24 0
7 -30 -38 0
7 -30 -45 0
7 -37 -24 0
7 -37 -31 0
7 -37 -45 0
7 -44 -24 0
7 -44 -31 0
7 -44 -38 0
8 -23 -32 0
8 -23 -39 0
8 -23 -46 0
8 -30 -25 0
8 -30 -39 0
8 -30 -46 0
8 -37 -25 0
8 -37 -32 0
8 -37 -46 0
8 -44 -25 0
8 -44 -32 0
8 -44 -39 0
9 -23 -33 0
9 -23 -40 0
9 -23 -47 0
9 -30 -26 0
9 -30 -40 0
9 -30 -47 0
9 -37 -26 0
9 -37 -33 0
9 -37 -47 0
9 -44 -26 0
9 -44 -33 0
9 -44 -40 0
10 -23 -34 0
10 -23 -41 0
10 -23 -48 0
10 -30 -27 0
10 -30 -41 0
10 -30 -48 0
10 -37 -27 0
10 -37 -34 0
10 -37 -48 0
10 -44 -27 0
10 -44 -34 0
10 -44 -41 0
11 -23 -35 0
11 -23 -42 0
11 -23 -49 0
11 -30 -28 0
11 -30 -42 0
11 -30 -49 0
11 -37 -28 0
11 -37 -35 0
11 -37 -49 0
11 -44 -28 0
11 -44 -35 0
11 -44 -42 0
12 -24 -32 0
12 -24 -39 0
12 -24 -46 0
12 -31 -25 0
12 -31 -39 0
12 -31 -46 0
12 -38 -25 0
12 -38 -32 0
12 -38 -46 0
12 -45 -25 0
12 -45 -32 0
12 -45 -39 0
13 -24 -33 0
13 -24 -40 0
13 -24 -47 0
13 -31 -26 0
13 -31 -40 0
13 -31 -47 0
13 -38 -26 0
13 -38 -33 0
13 -38 -47 0
13 -45 -26 0
13 -45 -33 0
13 -45 -40 0
14 -24 -34 0
14 -24 -41 0
14 -24 -48 0
14 -31 -27 0
14 -31 -41 0
14 -31 -48 0
14 -38 -27 0
14 -38 -34 0
14 -38 -48 0
14 -45 -27 0
14 -45 -34 0
14 -45 -41 0
15 -24 -35 0
15 -24 -42 0
15 -24 -49 0
15 -31 -28 0
15 -31 -42 0
15 -31 -49 0
15 -38 -28 0
15 -38 -35 0
15 -38 -49 0
15 -45 -28 0
15 -45 -35 0
15 -45 -42 0
16 -25 -33 0
16 -25 -40 0
16 -25 -47 0
16 -32 -26 0
16 -32 -40 0
16 -32 -47 0
16 -39 -26 0
16 -39 -33 0
16 -39 -47 0
16 -46 -26 0
16 -46 -33 0
16 -46 -40 0
17 -25 -34 0
17 -25 -41 0
17 -25 -48 0
17 -32 -27 0
17 -32 -41 0
17 -32 -48 0
17 -39 -27 0
17 -39 -34 0
17 -39 -48 0
17 -46 -27 0
17 -46 -34 0
17 -46 -41 0
18 -25 -35 0
18 -25 -42 0
18 -25 -49 0
18 -32 -28 0
18 -32 -42 0
18 -32 -49 0
18 -39 -28 0
18 -39 -35 0
18 -39 -49 0
18 -46 -28 0
18 -46 -35 0
18 -46 -42 0
19 -26 -34 0
19 -26 -41 0
19 -26 -48 0
19 -33 -27 0
19 -33 -41 0
19 -33 -48 0
19 -40 -27 0
19 -40 -34 0
19 -40 -48 0
19 -47 -27 0
19 -47 -34 0
19 -47 -41 0
20 -26 -35 0
20 -26 -42 0
20 -26 -49 0
20 -33 -28 0
20 -33 -42 0
20 -33 -49 0
20 -40 -28 0
20 -40 -35 0
20 -40 -49 0
20 -47 -28 0
20 -47 -35 0
20 -47 -42 0
21 -27 -35 0
21 -27 -42 0
21 -27 -49 0
21 -34 -28 0
21 -34 -42 0
21 -34 -49 0
21 -41 -28 0
21 -41 -35 0
21 -41 -49 0
21 -48 -28 0
21 -48 -35 0
21 -48 -42 0
-50 -51 0
-50 -52 0
-50 -53 0
-50 -54 0
-50 -55 0
-51 -52 0
-51 -53 0
-51 -54 0
-51 -55 0
-52 -53 0
-52 -54 0
-52 -55 0
-53 -54 0
-53 -55 0
-54 -55 0
50 51 52 53 54 55 0
-56 -57 0
-56 -58 0
-56 -59 0
-56 -60 0
-56 -61 0
-57 -58 0
-57 -59 0
-57 -60 0
-57 -61 0
-58 -59 0
-58 -60 0
-58 -61 0
-59 -60 0
-59 -61 0
-60 -61 0
56 57 58 59 60 61 0
-62 -63 0
-62 -64 0
-62 -65 0
-62 -66 0
-62 -67 0
-63 -64 0
-63 -65 0
-63 -66 0
-63 -67 0
-64 -65 0
-64 -66 0
-64 -67 0
-65 -66 0
-65 -67 0
-66 -67 0
62 63 64 65 66 67 0
-68 -69 0
-68 -70 0
-68 -71 0
-68 -72 0
-68 -73 0
-69 -70 0
-69 -71 0
-69 -72 0
-69 -73 0
-70 -71 0
-70 -72 0
-70 -73 0
-71 -72 0
-71 -73 0
-72 -73 0
68 69 70 71 72 73 0
-74 -75 0
-74 -76 0
-74 -77 0
-74 -78 0
-74 -79 0
-75 -76 0
-75 -77 0
-75 -78 0
-75 -79 0
-76 -77 0
-76 -78 0
-76 -79 0
-77 -78 0
-77 -79 0
-78 -79 0
74 75 76 77 78 79 0
-80 -81 0
-80 -82 0
-80 -83 0
-80 -84 0
-80 -85 0
-81 -82 0
-81 -83 0
-81 -84 0
-81 -85 0
-82 -83 0
-82 -84 0
-82 -85 0
-83 -84 0
-83 -85 0
-84 -85 0
80 81 82 83 84 85 0
-86 -87 0
-86 -88 0
-86 -89 0
-86 -90 0
-86 -91 0
-87 -88 0
-87 -89 0
-87 -90 0
-87 -91 0
-88 -89 0
-88 -90 0
-88 -91 0
-89 -90 0
-89 -91 0
-90 -91 0
86 87 88 89 90 91 0
-1 -50 -56 0
-1 -51 -57 0
-1 -52 -58 0
-1 -53 -59 0
-1 -54 -60 0
-1 -55 -61 0
-2 -50 -62 0
-2 -51 -63 0
-2 -52 -64 0
-2 -53 -65 0
-2 -54 -66 0
-2 -55 -67 0
-3 -50 -68 0
-3 -51 -69 0
-3 -52 -70 0
-3 -53 -71 0
-3 -54 -72 0
-3 -55 -73 0
-4 -50 -74 0
-4 -51 -75 0
-4 -52 -76 0
-4 -53 -77 0
-4 -54 -78 0
-4 -55 -79 0
-5 -50 -80 0
-5 -51 -81 0
-5 -52 -82 0
-5 -53 -83 0
-5 -54 -84 0
-5 -55 -85 0
-6 -50 -86 0
-6 -51 -87 0
-6 -52 -88 0
-6 -53 -89 0
-6 -54 -90 0
-6 -55 -91 0
-7 -56 -62 0
-7 -57 -63 0
-7 -58 -64 0
-7 -59 -65 0
-7 -60 -66 0
-7 -61 -67 0
-8 -56 -68 0
-8 -57 -69 0
-8 -58 -70 0
-8 -59 -71 0
-8 -60 -72 0
-8 -61 -73 0
-9 -56 -74 0
-9 -57 -75 0
-9 -58 -76 0
-9 -59 -77 0
-9 -60 -78 0
-9 -61 -79 0
-10 -56 -80 0
-10 -57 -81 0
-10 -58 -82 0
-10 -59 -83 0
-10 -60 -84 0
-10 -61 -85 0
-11 -56 -86 0
-11 -57 -87 0
-11 -58 -88 0
-11 -59 -89 0
-11 -60 -90 0
-11 -61 -91 0
-12 -62 -68 0
-12 -63 -69 0
-12 -64 -70 0
-12 -65 -71 0
-12 -66 -72 0
-12 -67 -73 0
-13 -62 -74 0
-13 -63 -75 0
-13 -64 -76 0
-13 -65 -77 0
-13 -66 -78 0
-13 -67 -79 0
-14 -62 -80 0
-14 -63 -81 0
-14 -64 -82 0
-14 -65 -83 0
-14 -66 -84 0
-14 -67 -85 0
-15 -62 -86 0
-15 -63 -87 0
-15 -64 -88 0
-15 -65 -89 0
-15 -66 -90 0
-15 -67 -91 0
-16 -68 -74 0
-16 -69 -75 0
-16 -70 -76 0
-16 -71 -77 0
-16 -72 -78 0
-16 -73 -79 0
-17 -68 -80 0
-17 -69 -81 0
-17 -70 -82 0
-17 -71 -83 0
-17 -72 -84 0
-17 -73 -85 0
-18 -68 -86 0
-18 -69 -87 0
-18 -70 -88 0
-18 -71 -89 0
-18 -72 -90 0
-18 -73 -91 0
-19 -74 -80 0
-19 -75 -81 0
-19 -76 -82 0
-19 -77 -83 0
-19 -78 -84 0
-19 -79 -85 0
-20 -74 -86 0
-20 -75 -87 0
-20 -76 -88 0
-20 -77 -89 0
-20 -78 -90 0
-20 -79 -91 0
-21 -80 -86 0
-21 -81 -87 0
-21 -82 -88 0
-21 -83 -89 0
-21 -84 -90 0
-21 -85 -91 0